This is Ipopt version 3.14.4, running with linear solver MUMPS 5.4.1.

Number of nonzeros in equality constraint Jacobian...:    19061
Number of nonzeros in inequality constraint Jacobian.:     5912
Number of nonzeros in Lagrangian Hessian.............:        0

Total number of variables............................:     6568
                     variables with only lower bounds:     1517
                variables with lower and upper bounds:        0
                     variables with only upper bounds:        0
Total number of equality constraints.................:     5217
Total number of inequality constraints...............:     1796
        inequality constraints with only lower bounds:        0
   inequality constraints with lower and upper bounds:        0
        inequality constraints with only upper bounds:     1796

iter    objective    inf_pr   inf_du lg(mu)  ||d||  lg(rg) alpha_du alpha_pr  ls
   0  4.5910008e+02 6.84e+00 2.95e+00   0.0 0.00e+00    -  0.00e+00 0.00e+00   0
   1  7.9429135e+02 6.06e+00 2.01e+01  -0.6 4.35e+00    -  2.09e-02 1.14e-01f  1
   2  1.9583374e+03 5.63e+00 4.46e+01   0.1 4.94e+00    -  5.76e-01 7.03e-02f  1
   3  4.1057472e+03 4.10e+00 3.22e+01   0.4 3.40e+00    -  2.22e-01 2.72e-01f  1
   4  4.1323984e+03 1.05e+00 3.57e+01   0.1 1.78e+00    -  3.57e-01 7.43e-01f  1
   5  3.0593595e+03 7.32e-01 3.12e+01  -0.5 3.22e+00    -  3.60e-01 3.05e-01f  1
   6  3.1071059e+03 3.60e-01 2.48e+01  -0.1 7.61e-01    -  6.86e-01 5.08e-01f  1
   7  2.7683991e+03 6.28e-02 2.03e+01  -0.2 7.32e-01    -  7.50e-01 8.26e-01f  1
   8  2.4806659e+03 2.79e-02 2.48e+01  -0.4 9.67e-01    -  6.24e-01 5.55e-01f  1
   9  2.0684516e+03 1.19e-02 2.70e+01  -0.5 4.99e-01    -  9.72e-01 1.00e+00f  1
iter    objective    inf_pr   inf_du lg(mu)  ||d||  lg(rg) alpha_du alpha_pr  ls
  10  1.9439884e+03 1.90e-02 2.31e+01  -0.5 4.48e-01    -  9.15e-01 1.00e+00f  1
  11  1.7046384e+03 3.52e-03 1.08e+01  -0.6 1.11e-01    -  7.83e-01 1.00e+00f  1
  12  1.4149673e+03 1.35e-03 4.46e+00  -0.9 2.55e-01    -  1.00e+00 7.32e-01f  1
  13  1.3821628e+03 2.12e-03 1.27e+01  -0.6 1.06e+00    -  9.08e-01 3.01e-01f  2
  14  1.3269141e+03 1.07e-02 1.93e+01  -0.7 3.22e-01    -  9.54e-01 1.00e+00f  1
  15  1.2384977e+03 5.98e-03 8.44e+00  -0.7 4.68e-01    -  8.38e-01 5.28e-01f  1
  16  9.8571680e+02 6.28e-03 1.58e+01  -0.9 3.75e-01    -  9.86e-01 8.97e-01f  1
  17  1.2253770e+03 2.61e-03 1.36e+01  -0.6 3.98e-01    -  8.87e-01 7.66e-01f  1
  18  9.9862494e+02 4.05e-03 8.78e+00  -0.8 2.39e-01    -  9.91e-01 1.00e+00f  1
  19  1.0031463e+03 3.91e-03 1.20e+01  -0.8 1.89e-01    -  7.74e-01 1.00e+00h  1
iter    objective    inf_pr   inf_du lg(mu)  ||d||  lg(rg) alpha_du alpha_pr  ls
  20  8.1334477e+02 2.33e-03 6.96e+00  -1.1 1.82e-01    -  1.00e+00 6.12e-01f  1
  21  7.3315281e+02 7.89e-03 1.01e+01  -1.1 3.51e-01    -  8.70e-01 6.88e-01f  1
  22  8.6379630e+02 3.68e-03 1.12e+01  -0.8 2.81e-01    -  1.00e+00 7.05e-01f  1
  23  7.8718597e+02 2.51e-03 1.33e+01  -0.9 8.04e-02    -  9.10e-01 1.00e+00f  1
  24  6.8854097e+02 7.17e-04 3.34e+00  -1.0 7.78e-02    -  9.89e-01 1.00e+00f  1
  25  5.7495009e+02 2.27e-03 6.17e+00  -1.3 2.39e-01    -  9.93e-01 6.90e-01f  1
  26  4.9803133e+02 2.24e-03 9.58e+00  -1.4 5.69e-01    -  1.00e+00 4.88e-01f  1
  27  4.6727252e+02 1.94e-03 1.08e+01  -1.5 8.45e-01    -  7.10e-01 4.88e-01F  1
  28  4.4378137e+02 1.38e-03 1.06e+01  -1.5 3.86e-01    -  7.15e-01 2.97e-01f  1
  29  3.9699191e+02 4.50e-04 4.01e+00  -1.7 1.39e-01    -  5.46e-01 6.07e-01f  1
iter    objective    inf_pr   inf_du lg(mu)  ||d||  lg(rg) alpha_du alpha_pr  ls
  30  3.7662991e+02 5.02e-04 9.13e+00  -1.8 1.98e-01    -  1.00e+00 4.57e-01f  1
  31  4.1034955e+02 4.39e-04 1.34e+01  -1.5 9.43e-02    -  7.32e-01 1.00e+00f  1
  32  3.8441433e+02 5.91e-04 4.39e+00  -1.6 8.45e-02    -  1.00e+00 8.59e-01f  1
  33  3.7454017e+02 3.73e-04 4.57e+00  -1.6 8.50e-02    -  9.96e-01 8.19e-01f  1
  34  3.6680585e+02 3.72e-04 3.43e+00  -1.6 5.89e-02    -  1.00e+00 8.89e-01f  1
  35  3.4296023e+02 4.84e-04 3.96e+00  -1.8 7.69e-02    -  9.96e-01 9.28e-01f  1
  36  3.2166715e+02 1.29e-03 7.72e+00  -2.1 1.70e-01    -  5.75e-01 7.22e-01f  1
  37  3.2851703e+02 9.47e-04 6.90e+00  -1.7 1.89e-01    -  1.00e+00 3.95e-01f  1
  38  3.4056177e+02 1.17e-03 6.00e+00  -1.7 1.10e-01    -  7.44e-01 8.82e-01f  1
  39  3.2004610e+02 5.94e-04 4.02e+00  -1.9 5.99e-02    -  1.00e+00 1.00e+00f  1
iter    objective    inf_pr   inf_du lg(mu)  ||d||  lg(rg) alpha_du alpha_pr  ls
  40  3.1497586e+02 6.24e-04 1.13e+01  -1.9 1.06e-01    -  1.00e+00 3.72e-01f  1
  41  3.0843768e+02 1.67e-04 3.31e+00  -1.9 5.12e-02    -  9.99e-01 1.00e+00f  1
  42  3.2149231e+02 3.23e-04 7.11e+00  -1.7 1.29e-01    -  8.11e-01 4.40e-01f  1
  43  3.1775311e+02 2.37e-04 6.63e+00  -1.9 9.22e-02    -  1.00e+00 6.99e-01f  1
  44  3.1193026e+02 2.54e-04 1.19e+01  -1.9 1.08e-01    -  1.00e+00 6.78e-01f  1
  45  3.0661090e+02 2.68e-04 1.16e+01  -1.9 2.25e-01    -  1.00e+00 4.51e-01f  2
  46  2.9729844e+02 5.86e-04 8.40e+00  -2.1 4.57e-01    -  1.00e+00 2.79e-01f  2
  47  3.0775768e+02 2.05e-03 8.49e+00  -1.7 6.91e-01    -  6.07e-01 4.87e-01f  1
  48  3.0311911e+02 1.84e-03 1.12e+01  -1.9 1.65e+00    -  3.33e-01 1.08e-01f  2
  49  2.9724080e+02 1.16e-03 1.03e+01  -1.9 5.69e-01    -  2.57e-01 2.00e-01f  1
iter    objective    inf_pr   inf_du lg(mu)  ||d||  lg(rg) alpha_du alpha_pr  ls
  50  2.8967101e+02 8.24e-04 1.03e+01  -1.9 4.82e-01    -  4.18e-01 2.42e-01f  1
  51  3.3271381e+02 1.32e-03 9.24e+00  -1.5 3.78e-01    -  7.63e-01 4.99e-01f  1
  52  3.1773656e+02 7.99e-04 8.84e+00  -1.7 1.51e-01    -  1.00e+00 6.85e-01f  1
  53  3.0600693e+02 9.61e-04 3.76e+00  -1.7 1.64e-01    -  7.09e-01 9.29e-01f  1
  54  3.1633374e+02 1.79e-04 1.04e+01  -1.7 3.22e-01    -  9.02e-01 8.59e-01H  1
  55  2.8526394e+02 2.60e-03 1.10e+01  -1.9 1.88e-01    -  1.00e+00 9.63e-01f  1
  56  3.1940421e+02 2.63e-03 5.33e+00  -1.4 6.23e-01    -  3.99e-01 4.15e-01f  1
  57  3.2969668e+02 3.90e-03 1.20e+01  -1.7 6.03e-01    -  5.30e-01 3.89e-01h  1
  58  3.0885676e+02 1.97e-03 8.01e+00  -1.7 1.99e-01    -  7.90e-01 4.87e-01f  1
  59  3.0020670e+02 2.21e-03 5.83e+00  -1.7 4.66e-01    -  6.92e-01 4.75e-01f  1
iter    objective    inf_pr   inf_du lg(mu)  ||d||  lg(rg) alpha_du alpha_pr  ls
  60  3.0642141e+02 1.40e-03 1.15e+01  -1.7 3.44e-01    -  7.52e-01 7.43e-01H  1
  61  2.9796320e+02 3.15e-03 4.52e+00  -1.7 1.61e-01    -  8.50e-01 9.47e-01f  1
  62  2.9227294e+02 1.31e-03 4.11e+00  -1.7 1.12e-01    -  7.76e-01 5.46e-01f  1
  63  2.7268838e+02 6.79e-04 3.07e+00  -2.0 1.11e-01    -  9.96e-01 6.88e-01f  1
  64  2.8419050e+02 3.55e-04 5.32e+00  -1.7 9.64e-02    -  1.00e+00 4.81e-01f  2
  65  2.6622409e+02 2.45e-04 7.60e+00  -2.3 1.35e-01    -  1.00e+00 4.93e-01f  1
  66  2.5710973e+02 7.72e-04 5.80e+00  -2.2 3.19e-01    -  7.36e-01 3.70e-01f  1
  67  2.5011905e+02 5.01e-04 6.58e+00  -2.2 7.88e-02    -  1.00e+00 3.29e-01f  1
  68  2.4384443e+02 4.46e-04 4.30e+00  -2.1 1.24e-01    -  5.60e-01 3.85e-01f  1
  69  2.4185214e+02 3.79e-04 1.72e+01  -2.2 8.13e-02    -  8.23e-01 1.58e-01f  1
iter    objective    inf_pr   inf_du lg(mu)  ||d||  lg(rg) alpha_du alpha_pr  ls
  70  2.5025408e+02 2.34e-04 3.72e+00  -1.9 9.29e-02    -  7.28e-01 5.00e-01f  2
  71  2.3994456e+02 1.28e-04 3.53e+00  -2.1 7.29e-02    -  1.00e+00 8.83e-01f  1
  72  2.3449160e+02 1.81e-04 1.06e+01  -2.3 1.11e-01    -  9.99e-01 3.67e-01f  2
  73  2.2042068e+02 3.75e-04 1.10e+01  -2.6 1.73e-01    -  1.00e+00 6.41e-01f  1
  74  2.4320886e+02 7.26e-04 7.23e+00  -1.8 4.87e-01    -  3.63e-01 2.51e-01f  1
  75  2.2729669e+02 4.18e-04 6.78e+00  -2.2 7.68e-02    -  4.52e-01 8.26e-01f  1
  76  2.7193257e+02 3.06e-03 1.11e+01  -1.8 2.42e-01    -  5.52e-01 8.67e-01f  1
  77  2.5390868e+02 2.12e-03 1.00e+01  -2.0 1.32e-01    -  1.00e+00 8.86e-01f  1
  78  2.4227952e+02 1.51e-03 3.78e+00  -2.0 2.12e-01    -  5.27e-01 4.68e-01f  1
  79  2.4077170e+02 1.06e-03 1.44e+01  -2.0 1.98e-01    -  1.82e-01 3.93e-01f  1
iter    objective    inf_pr   inf_du lg(mu)  ||d||  lg(rg) alpha_du alpha_pr  ls
  80  2.3948880e+02 4.06e-04 1.12e+01  -2.0 3.42e-02    -  1.00e+00 6.02e-01f  1
  81  2.3940468e+02 4.68e-05 1.57e+00  -2.0 2.54e-02    -  1.00e+00 1.00e+00f  1
  82  2.2210172e+02 1.29e-04 3.83e+00  -2.4 1.10e-01    -  1.00e+00 6.69e-01f  1
  83  2.1045934e+02 2.76e-03 1.43e+01  -2.6 6.77e-01    -  1.00e+00 5.82e-01f  1
  84  3.1256470e+02 8.93e-03 3.17e+01  -1.6 1.37e+00    -  4.32e-01 4.29e-01f  1
  85  2.5117766e+02 4.33e-03 1.12e+01  -2.0 2.53e-01    -  6.52e-01 5.89e-01f  1
  86  2.4168132e+02 3.47e-03 8.99e+00  -2.0 2.97e-01    -  6.16e-01 2.56e-01f  1
  87  2.4704049e+02 2.31e-03 1.68e+01  -2.0 1.35e-01    -  4.39e-01 1.00e+00h  1
  88  2.3207077e+02 1.23e-03 5.73e+00  -2.0 1.06e-01    -  1.00e+00 7.40e-01f  1
  89  2.3110126e+02 5.03e-04 3.02e+00  -2.0 5.51e-02    -  7.05e-01 6.17e-01f  1
iter    objective    inf_pr   inf_du lg(mu)  ||d||  lg(rg) alpha_du alpha_pr  ls
  90  2.3150985e+02 5.52e-05 1.00e+00  -2.0 2.16e-02    -  1.00e+00 1.00e+00f  1
  91  2.2226414e+02 3.68e-05 8.63e+00  -2.6 5.42e-02    -  1.00e+00 4.81e-01f  1
  92  2.1500036e+02 4.85e-05 2.23e+01  -2.8 1.47e-01    -  9.99e-01 3.08e-01f  1
  93  2.1183420e+02 5.31e-05 1.22e+01  -2.8 2.32e-01    -  1.00e+00 1.02e-01f  1
  94  2.2094360e+02 3.42e-04 4.80e+00  -2.1 1.25e-01    -  9.17e-01 1.00e+00f  1
  95  2.1636137e+02 1.13e-04 6.50e+00  -2.2 2.71e-01    -  1.00e+00 7.89e-01F  1
  96  2.1450457e+02 1.05e-03 9.70e+00  -2.2 7.03e-01    -  7.78e-01 2.70e-01f  1
  97  2.0915804e+02 6.59e-04 9.34e+00  -2.3 1.04e-01    -  3.82e-01 4.18e-01f  1
  98  2.0602111e+02 2.51e-04 5.07e+00  -2.3 2.98e-02    -  7.23e-01 6.00e-01f  1
  99  2.0216084e+02 8.37e-05 4.83e+00  -2.4 6.54e-02    -  1.00e+00 7.59e-01f  1
iter    objective    inf_pr   inf_du lg(mu)  ||d||  lg(rg) alpha_du alpha_pr  ls
 100  1.9922754e+02 5.98e-05 8.54e+00  -2.6 3.00e-01    -  1.00e+00 2.03e-01f  1
 101  2.0498866e+02 1.25e-03 1.21e+01  -2.2 3.25e-01    -  6.98e-01 7.64e-01f  1
 102  2.0201898e+02 9.81e-04 1.47e+01  -2.4 9.79e-01    -  3.50e-01 2.59e-01f  1
 103  1.9912896e+02 7.27e-04 1.39e+01  -2.4 1.57e+00    -  2.94e-01 1.03e-01f  1
 104  1.9438787e+02 6.96e-04 1.56e+01  -4.0 4.20e-01    -  2.81e-01 2.37e-01f  1
 105  1.8839708e+02 3.86e-04 1.05e+01  -2.7 1.32e-01    -  4.97e-01 4.96e-01f  1
 106  1.8742762e+02 3.01e-04 1.06e+01  -2.5 6.55e-02    -  7.47e-01 2.27e-01f  1
 107  1.8654154e+02 1.06e-04 5.89e+00  -2.5 3.52e-02    -  9.20e-01 6.31e-01f  1
 108  1.8311310e+02 1.74e-04 6.38e+00  -2.7 1.06e-01    -  1.00e+00 6.36e-01f  1
 109  1.8132848e+02 1.79e-04 8.07e+00  -2.7 3.35e-01    -  1.00e+00 3.90e-01f  2
iter    objective    inf_pr   inf_du lg(mu)  ||d||  lg(rg) alpha_du alpha_pr  ls
 110  1.9062711e+02 2.61e-03 1.35e+01  -2.2 7.58e-01    -  3.08e-01 4.30e-01f  1
 111  1.8878169e+02 1.67e-03 1.28e+01  -2.5 5.07e-01    -  5.30e-01 2.92e-01f  1
 112  1.8456996e+02 1.22e-03 7.91e+00  -2.5 9.52e-02    -  2.75e-01 3.33e-01f  1
 113  1.8182342e+02 6.65e-04 5.41e+00  -2.5 7.55e-02    -  3.91e-01 4.35e-01f  1
 114  1.8030921e+02 2.61e-04 5.20e+00  -2.5 6.57e-02    -  8.27e-01 5.91e-01f  1
 115  1.7559733e+02 1.37e-04 6.55e+00  -3.0 1.33e-01    -  1.00e+00 5.77e-01f  1
 116  1.7841535e+02 1.88e-04 7.57e+00  -2.5 1.35e-01    -  1.00e+00 5.00e-01f  2
 117  1.7745612e+02 1.07e-04 6.12e+00  -2.6 9.85e-02    -  1.00e+00 5.00e-01f  2
 118  1.7357806e+02 7.48e-05 7.46e+00  -3.1 1.26e-01    -  1.00e+00 4.88e-01f  1
 119  1.7231890e+02 1.12e-04 1.56e+01  -3.0 1.15e-01    -  1.00e+00 3.07e-01f  2
iter    objective    inf_pr   inf_du lg(mu)  ||d||  lg(rg) alpha_du alpha_pr  ls
 120  1.7550272e+02 8.83e-05 2.55e+00  -2.7 9.11e-02    -  1.00e+00 1.00e+00f  1
 121  1.7377178e+02 1.90e-04 6.42e+00  -2.7 1.72e-01    -  1.00e+00 8.62e-01f  1
 122  1.7337847e+02 1.68e-04 6.57e+00  -2.7 2.06e-01    -  3.88e-01 3.30e-01f  1
 123  1.7214631e+02 9.56e-05 5.69e+00  -2.7 4.43e-02    -  2.57e-01 9.89e-01f  1
 124  1.7603190e+02 7.88e-05 4.48e+00  -2.5 7.86e-02    -  1.00e+00 7.29e-01f  1
 125  1.7521905e+02 3.48e-05 3.82e+00  -2.6 6.83e-02    -  1.00e+00 5.00e-01f  2
 126  1.7178404e+02 3.78e-04 7.74e+00  -2.8 1.67e-01    -  1.00e+00 1.00e+00f  1
 127  1.7268222e+02 3.27e-04 1.54e+01  -2.5 5.32e-01    -  1.00e+00 1.64e-01f  3
 128  1.7199669e+02 2.05e-04 8.59e+00  -2.7 1.31e-01    -  5.63e-01 3.70e-01f  1
 129  1.6959168e+02 1.82e-04 8.14e+00  -4.0 1.94e-01    -  3.01e-01 2.35e-01f  1
iter    objective    inf_pr   inf_du lg(mu)  ||d||  lg(rg) alpha_du alpha_pr  ls
 130  1.6835004e+02 1.76e-04 8.89e+00  -3.0 2.66e-01    -  8.62e-01 4.20e-01f  2
 131  1.8327468e+02 5.50e-04 6.58e+00  -2.1 5.09e-01    -  4.57e-01 4.00e-01f  1
 132  1.8589977e+02 2.10e-03 8.32e+00  -2.5 3.20e-01    -  6.92e-01 8.43e-01h  1
 133  1.7874086e+02 8.84e-04 6.65e+00  -2.5 8.47e-02    -  8.89e-01 5.20e-01f  1
 134  1.7733654e+02 6.19e-04 1.52e+01  -2.5 8.07e-02    -  1.00e+00 3.12e-01f  1
 135  1.7669915e+02 8.98e-05 2.88e+00  -2.5 6.98e-02    -  1.00e+00 1.00e+00f  1
 136  1.7650605e+02 1.71e-05 2.73e+00  -2.5 1.83e-02    -  1.00e+00 1.00e+00f  1
 137  1.7157064e+02 3.86e-05 2.79e+00  -2.7 5.25e-02    -  1.00e+00 7.46e-01f  1
 138  1.7770201e+02 6.92e-05 2.24e+00  -2.4 7.29e-02    -  1.00e+00 1.00e+00f  1
 139  1.7478730e+02 1.30e-04 3.16e+00  -2.5 4.93e-02    -  1.00e+00 1.00e+00f  1
iter    objective    inf_pr   inf_du lg(mu)  ||d||  lg(rg) alpha_du alpha_pr  ls
 140  1.7350543e+02 4.37e-05 1.45e+00  -2.5 4.22e-02    -  1.00e+00 1.00e+00f  1
 141  1.6956903e+02 2.73e-05 6.02e+00  -2.9 7.53e-02    -  1.00e+00 5.71e-01f  1
 142  1.6440411e+02 1.65e-04 4.25e+00  -3.3 1.43e-01    -  1.00e+00 7.47e-01f  1
 143  1.6291125e+02 7.87e-05 1.38e+01  -3.4 1.21e-01    -  1.00e+00 3.97e-01f  1
 144  1.6431642e+02 8.39e-05 4.23e+00  -2.9 7.73e-02    -  7.05e-01 6.66e-01f  1
 145  1.6326109e+02 6.17e-05 1.60e+01  -3.5 2.57e-02    -  1.00e+00 2.95e-01f  1
 146  1.6202587e+02 3.72e-05 1.26e+01  -3.5 3.13e-02    -  1.00e+00 4.28e-01f  1
 147  1.6054347e+02 1.71e-05 1.71e+00  -3.7 2.10e-02    -  1.00e+00 8.68e-01f  1
 148  1.6001091e+02 9.27e-06 5.77e+00  -4.0 3.75e-02    -  1.00e+00 5.39e-01f  1
 149  1.5999585e+02 1.47e-05 4.22e+00  -3.6 5.80e-02    -  7.82e-01 3.85e-01f  1
iter    objective    inf_pr   inf_du lg(mu)  ||d||  lg(rg) alpha_du alpha_pr  ls
 150  1.5966746e+02 7.63e-06 3.20e+00  -4.0 3.06e-02    -  1.00e+00 5.48e-01f  1
 151  1.5953699e+02 3.10e-05 3.27e+00  -3.9 1.15e-01    -  6.46e-01 3.85e-01f  1
 152  1.5943605e+02 2.65e-05 5.42e+00  -4.0 5.25e-02    -  5.46e-01 1.48e-01f  1
 153  1.5927340e+02 3.32e-05 5.15e+00  -4.0 6.69e-02    -  1.00e+00 5.91e-01f  1
 154  1.5918808e+02 3.03e-05 5.40e+00  -4.0 8.93e-02    -  6.56e-01 1.26e-01f  1
 155  1.5909574e+02 7.65e-06 2.28e+00  -4.0 2.71e-02    -  5.80e-01 5.75e-01f  1
 156  1.5903340e+02 4.61e-06 1.98e+00  -4.0 1.60e-02    -  6.07e-01 4.23e-01f  1
 157  1.5935507e+02 3.76e-06 4.32e-01  -3.7 5.70e-03    -  1.00e+00 1.00e+00f  1
 158  1.5903423e+02 5.65e-06 1.45e+00  -4.0 2.15e-02    -  1.00e+00 8.27e-01f  1
 159  1.6203365e+02 1.29e-04 3.83e+00  -3.2 7.45e-02    -  7.53e-01 1.00e+00f  1
iter    objective    inf_pr   inf_du lg(mu)  ||d||  lg(rg) alpha_du alpha_pr  ls
 160  1.6158629e+02 8.39e-05 8.60e+00  -3.3 8.28e-02    -  1.00e+00 3.21e-01f  2
 161  1.6103269e+02 8.55e-05 4.06e+00  -3.3 9.25e-02    -  6.39e-01 6.13e-01F  1
 162  1.6089113e+02 2.70e-05 3.09e+00  -3.3 3.34e-02    -  9.09e-01 9.41e-01f  1
 163  1.6058565e+02 2.67e-05 5.85e-01  -3.3 1.29e-02    -  1.00e+00 1.00e+00f  1
 164  1.6057625e+02 2.09e-06 5.69e-01  -3.3 1.18e-02    -  1.00e+00 1.00e+00h  1
 165  1.5933720e+02 3.53e-05 4.20e+00  -3.8 5.87e-02    -  1.00e+00 8.72e-01f  1
 166  1.5904564e+02 1.03e-04 7.42e+00  -3.8 6.49e-02    -  5.44e-01 7.44e-01f  1
 167  1.5901120e+02 4.58e-05 5.98e+00  -3.8 4.33e-02    -  4.78e-01 4.74e-01f  2
 168  1.5865457e+02 1.15e-05 3.18e+00  -4.0 1.52e-02    -  8.58e-01 6.53e-01f  1
 169  1.5849612e+02 4.25e-06 1.62e+00  -4.0 3.00e-02    -  1.00e+00 7.36e-01f  1
iter    objective    inf_pr   inf_du lg(mu)  ||d||  lg(rg) alpha_du alpha_pr  ls
 170  1.5847588e+02 3.51e-05 3.33e+00  -4.0 2.40e-01    -  4.66e-01 3.83e-01f  1
 171  1.5876900e+02 8.09e-05 1.55e+01  -3.4 5.99e-01    -  6.93e-01 1.68e-01f  1
 172  1.5861543e+02 1.39e-04 1.32e+01  -3.7 6.08e-01    -  2.85e-01 2.03e-01f  2
 173  1.5852477e+02 1.42e-04 1.14e+01  -3.7 1.79e+00    -  2.34e-01 5.48e-02f  2
 174  1.5840422e+02 2.20e-04 1.62e+01  -3.7 7.53e-01    -  3.86e-01 1.77e-01f  1
 175  1.5828808e+02 1.84e-04 1.71e+01  -3.4 3.33e-01    -  4.81e-01 6.28e-02f  1
 176  1.6088412e+02 2.60e-04 1.63e+01  -2.8 2.11e-01    -  4.88e-01 3.05e-01f  1
 177  1.6071072e+02 1.86e-04 4.41e+00  -3.2 4.06e-02    -  6.91e-01 8.53e-01f  1
 178  1.5973592e+02 7.20e-05 2.33e+00  -3.2 2.99e-02    -  6.63e-01 5.84e-01f  1
 179  1.5963463e+02 1.44e-05 8.85e-01  -3.2 1.67e-02    -  1.00e+00 1.00e+00f  1
iter    objective    inf_pr   inf_du lg(mu)  ||d||  lg(rg) alpha_du alpha_pr  ls
 180  1.5965974e+02 1.88e-06 4.61e-01  -3.2 9.37e-03    -  1.00e+00 1.00e+00f  1
 181  1.5828282e+02 5.34e-06 1.72e+00  -3.7 1.50e-02    -  1.00e+00 8.07e-01f  1
 182  1.5787461e+02 2.51e-05 1.97e+00  -3.7 4.72e-02    -  1.00e+00 6.06e-01f  1
 183  1.5742946e+02 1.52e-05 2.19e+00  -3.8 3.10e-02    -  1.00e+00 7.14e-01f  1
 184  1.5721308e+02 9.42e-06 3.93e+00  -4.0 1.76e-02    -  1.00e+00 5.74e-01f  1
 185  1.5703535e+02 2.49e-06 5.62e-01  -4.0 6.47e-03    -  1.00e+00 8.52e-01f  1
 186  1.5699543e+02 1.20e-06 1.80e-01  -4.0 5.88e-03    -  1.00e+00 1.00e+00h  1
 187  1.5697040e+02 7.45e-06 1.29e+00  -4.0 3.54e-02    -  9.98e-01 7.49e-01f  1
 188  1.5694444e+02 6.83e-06 3.17e+00  -4.0 9.27e-02    -  8.93e-01 2.57e-01f  2
 189  1.5692226e+02 1.23e-05 3.51e+00  -4.0 1.01e-01    -  1.00e+00 3.66e-01f  2
iter    objective    inf_pr   inf_du lg(mu)  ||d||  lg(rg) alpha_du alpha_pr  ls
 190  1.5708658e+02 2.34e-05 3.62e+00  -3.7 2.01e-01    -  6.26e-01 2.85e-01f  2
 191  1.5695558e+02 1.21e-05 2.05e+00  -4.0 2.42e-02    -  1.00e+00 8.95e-01f  1
 192  1.5688108e+02 3.72e-06 3.38e+00  -4.0 1.05e-02    -  1.00e+00 7.33e-01f  1
 193  1.5681575e+02 2.48e-06 2.27e-01  -4.0 1.97e-02    -  1.00e+00 1.00e+00f  1
 194  1.5750131e+02 5.45e-05 2.24e+00  -3.6 8.38e-02    -  9.97e-01 1.00e+00f  1
 195  1.5738387e+02 8.06e-05 6.85e+00  -3.7 2.26e-01    -  5.18e-01 8.00e-01f  1
 196  1.5726395e+02 1.08e-04 1.07e+01  -3.7 1.64e+00    -  2.34e-01 9.13e-02f  1
 197  1.5719000e+02 1.05e-04 1.14e+01  -3.7 7.69e-01    -  5.49e-01 7.53e-02f  2
 198  1.5714535e+02 5.35e-05 1.06e+01  -3.7 1.14e-01    -  1.00e+00 3.56e-01f  1
 199  1.5682498e+02 1.88e-05 1.02e+01  -3.7 2.39e-02    -  1.31e-01 5.90e-01f  1
iter    objective    inf_pr   inf_du lg(mu)  ||d||  lg(rg) alpha_du alpha_pr  ls
 200  1.5669642e+02 1.38e-05 1.81e+00  -3.7 1.10e-02    -  8.21e-01 1.00e+00f  1
 201  1.5631825e+02 2.42e-06 4.88e-01  -4.0 2.16e-02    -  1.00e+00 9.52e-01f  1
 202  1.5648643e+02 6.51e-06 5.44e+00  -3.7 1.75e-02    -  7.67e-01 5.00e-01f  2
 203  1.5633629e+02 3.38e-06 3.76e-01  -3.9 8.31e-03    -  1.00e+00 1.00e+00f  1
 204  1.5620160e+02 1.52e-06 6.94e-01  -4.0 8.58e-03    -  1.00e+00 8.50e-01f  1
 205  1.5614589e+02 1.63e-06 4.89e-01  -4.0 9.98e-03    -  1.00e+00 1.00e+00f  1
 206  1.5650233e+02 3.76e-05 1.77e+00  -3.7 6.02e-02    -  8.77e-01 6.78e-01f  1
 207  1.5642328e+02 2.82e-05 5.37e+00  -3.9 4.01e-02    -  1.00e+00 2.50e-01f  3
 208  1.5623579e+02 2.30e-05 1.23e+00  -3.9 1.48e-02    -  9.54e-01 8.14e-01f  1
 209  1.5621783e+02 1.59e-06 3.44e-01  -3.9 4.12e-03    -  1.00e+00 1.00e+00f  1
iter    objective    inf_pr   inf_du lg(mu)  ||d||  lg(rg) alpha_du alpha_pr  ls
 210  1.5620714e+02 1.43e-06 2.29e-01  -3.9 6.94e-03    -  1.00e+00 1.00e+00h  1
 211  1.5613809e+02 1.49e-06 1.61e+00  -4.0 2.13e-02    -  1.00e+00 5.00e-01f  2
 212  1.5605524e+02 8.72e-06 1.57e+00  -4.0 2.82e-02    -  1.00e+00 1.00e+00f  1
 213  1.5618810e+02 1.69e-05 4.22e+00  -3.7 1.62e-01    -  9.33e-01 2.50e-01f  3
 214  1.5616545e+02 1.18e-05 4.14e+00  -3.9 3.38e-02    -  1.00e+00 2.26e-01f  2
 215  1.5612792e+02 7.91e-06 6.85e-01  -3.9 2.48e-02    -  1.00e+00 1.00e+00f  1
 216  1.5611388e+02 6.23e-06 4.39e+00  -3.9 3.94e-02    -  1.00e+00 5.00e-01f  2
 217  1.5610077e+02 5.23e-06 2.87e+00  -3.9 2.75e-02    -  1.00e+00 2.50e-01f  3
 218  1.5609331e+02 8.53e-06 2.65e+00  -3.9 5.56e-02    -  1.00e+00 5.00e-01f  2
 219  1.5608927e+02 7.99e-06 1.92e+00  -3.9 1.10e-01    -  8.18e-01 6.25e-02h  5
iter    objective    inf_pr   inf_du lg(mu)  ||d||  lg(rg) alpha_du alpha_pr  ls
 220  1.5614832e+02 7.47e-09 3.07e-01  -3.9 1.46e-02    -  1.00e+00 1.00e+00H  1
 221  1.5600968e+02 3.67e-06 4.95e-01  -4.0 1.07e-02    -  1.00e+00 1.00e+00f  1
 222  1.5601856e+02 1.75e-06 3.33e-01  -4.0 4.41e-03    -  1.00e+00 1.00e+00h  1
 223  1.5599807e+02 1.28e-06 1.41e-01  -4.0 8.88e-03    -  1.00e+00 1.00e+00f  1
 224  1.5600754e+02 6.66e-07 4.05e-01  -4.0 1.04e-02    -  1.00e+00 1.00e+00h  1
 225  1.5598906e+02 1.52e-06 7.45e-01  -4.0 9.51e-03    -  1.00e+00 1.00e+00f  1
 226  1.5598405e+02 1.47e-06 4.48e+00  -4.0 3.62e-02    -  1.00e+00 1.02e-01f  4
 227  1.5598291e+02 6.49e-07 2.34e-01  -4.0 8.77e-03    -  1.00e+00 1.00e+00h  1
 228  1.5644338e+02 5.38e-05 3.51e+00  -3.7 8.48e-02    -  1.00e+00 1.00e+00f  1
 229  1.5641654e+02 5.83e-05 6.05e+00  -3.8 5.65e-01    -  2.24e-01 8.17e-02f  2
iter    objective    inf_pr   inf_du lg(mu)  ||d||  lg(rg) alpha_du alpha_pr  ls
 230  1.5640675e+02 5.85e-05 7.95e+00  -3.8 1.12e+00    -  2.35e-01 4.01e-02f  3
 231  1.5636086e+02 4.15e-05 8.63e+00  -3.8 1.61e-01    -  2.04e-01 2.50e-01f  3
 232  1.5628761e+02 3.34e-05 7.70e+00  -3.8 4.78e-02    -  6.09e-01 2.50e-01f  3
 233  1.5619481e+02 2.27e-05 5.68e+00  -3.8 4.25e-02    -  5.87e-01 3.73e-01f  2
 234  1.5617143e+02 2.59e-05 3.68e+00  -3.8 5.88e-02    -  1.00e+00 5.00e-01f  2
 235  1.5604442e+02 1.17e-04 6.71e+00  -3.8 1.80e-01    -  1.00e+00 6.93e-01F  1
 236  1.5602032e+02 6.68e-05 7.76e+00  -3.8 1.15e+00    -  3.61e-01 4.33e-02f  3
 237  1.5600413e+02 4.16e-05 9.33e+00  -3.8 1.04e+00    -  7.30e-01 9.26e-02f  2
 238  1.5595700e+02 3.89e-05 9.79e+00  -3.8 9.14e-01    -  2.69e-01 7.68e-02f  2
 239  1.5600256e+02 3.84e-05 9.08e+00  -3.6 2.69e-01    -  5.16e-01 1.68e-01f  2
iter    objective    inf_pr   inf_du lg(mu)  ||d||  lg(rg) alpha_du alpha_pr  ls
 240  1.5594287e+02 5.65e-05 6.28e+00  -3.8 1.07e-01    -  5.68e-01 4.34e-01f  1
 241  1.5583019e+02 3.19e-05 7.64e+00  -4.0 6.77e-02    -  1.00e+00 3.31e-01f  2
 242  1.5600158e+02 8.19e-05 5.29e+00  -3.7 7.03e-02    -  1.00e+00 5.98e-01f  1
 243  1.5589386e+02 5.50e-05 4.36e+00  -3.8 1.22e-01    -  7.21e-01 2.85e-01f  2
 244  1.5560226e+02 2.58e-05 2.63e+00  -4.0 5.22e-02    -  1.00e+00 7.42e-01f  1
 245  1.5551331e+02 2.80e-05 1.82e+00  -4.0 3.93e-02    -  1.00e+00 6.96e-01f  1
 246  1.5547382e+02 9.46e-06 8.89e-01  -4.0 1.69e-02    -  1.00e+00 1.00e+00f  1
 247  1.5547014e+02 5.33e-06 3.57e+00  -4.0 3.24e-02    -  1.00e+00 5.00e-01f  2
 248  1.5544595e+02 3.94e-06 6.03e-01  -4.0 1.62e-02    -  1.00e+00 1.00e+00f  1
 249  1.5542872e+02 2.84e-06 2.64e+00  -4.0 1.29e-02    -  1.00e+00 5.00e-01f  2
iter    objective    inf_pr   inf_du lg(mu)  ||d||  lg(rg) alpha_du alpha_pr  ls
 250  1.5542227e+02 9.57e-07 1.87e-01  -4.0 6.68e-03    -  1.00e+00 1.00e+00h  1
 251  1.5541970e+02 7.61e-07 1.47e+00  -4.0 9.42e-03    -  1.00e+00 5.00e-01h  2
 252  1.5541380e+02 1.29e-06 3.50e-01  -4.0 5.03e-03    -  1.00e+00 1.00e+00f  1
 253  1.5540775e+02 1.79e-06 2.11e+00  -4.0 1.61e-02    -  1.00e+00 5.00e-01f  2
 254  1.5540232e+02 1.13e-06 1.30e+00  -4.0 1.20e-02    -  1.00e+00 2.50e-01h  3
 255  1.5539152e+02 1.50e-06 5.19e-01  -4.0 9.40e-03    -  1.00e+00 1.00e+00f  1
 256  1.5538625e+02 1.27e-06 1.91e+00  -4.0 1.53e-02    -  1.00e+00 2.50e-01f  3
 257  1.5539788e+02 5.00e-09 1.13e-01  -4.0 1.04e-02    -  1.00e+00 1.00e+00H  1
 258  1.5538749e+02 1.35e-06 1.77e+00  -4.0 1.33e-02    -  1.00e+00 5.00e-01f  2
 259  1.5538077e+02 1.07e-06 1.14e+00  -4.0 8.05e-03    -  1.00e+00 5.00e-01f  2
iter    objective    inf_pr   inf_du lg(mu)  ||d||  lg(rg) alpha_du alpha_pr  ls
 260  1.5537717e+02 3.00e-07 2.05e-01  -4.0 2.72e-03    -  1.00e+00 1.00e+00h  1
 261  1.5537454e+02 1.29e-07 6.48e-02  -4.0 1.39e-03    -  1.00e+00 1.00e+00h  1
 262  1.5537425e+02 9.34e-08 8.70e-02  -4.0 2.03e-03    -  1.00e+00 1.00e+00h  1
 263  1.5537593e+02 1.30e-06 5.74e-01  -4.0 1.07e-02    -  1.00e+00 1.00e+00f  1
 264  1.5536244e+02 8.55e-07 1.82e+00  -4.1 3.72e-02    -  1.00e+00 1.25e-01f  4
 265  1.5536625e+02 6.54e-07 1.30e+00  -4.0 1.05e-02    -  1.00e+00 5.00e-01h  2
 266  1.5534189e+02 6.63e-07 2.58e+00  -4.1 1.17e-02    -  1.00e+00 2.50e-01f  3
 267  1.5536643e+02 3.67e-07 1.79e-01  -4.0 2.36e-03    -  1.00e+00 1.00e+00h  1
 268  1.5536522e+02 3.06e-07 9.15e-02  -4.0 3.72e-03    -  1.00e+00 1.00e+00h  1
 269  1.5537422e+02 4.07e-09 7.08e-02  -4.0 7.47e-03    -  1.00e+00 1.00e+00H  1
iter    objective    inf_pr   inf_du lg(mu)  ||d||  lg(rg) alpha_du alpha_pr  ls
 270  1.5537118e+02 8.75e-07 2.98e-01  -4.0 2.91e-03    -  1.00e+00 1.00e+00f  1
 271  1.5527896e+02 3.46e-07 2.07e-01  -4.1 2.14e-03    -  1.00e+00 1.00e+00f  1
 272  1.5536073e+02 7.66e-08 5.60e-02  -4.0 1.83e-03    -  1.00e+00 1.00e+00f  1
 273  1.5536509e+02 9.83e-08 9.74e-02  -4.0 2.52e-03    -  1.00e+00 1.00e+00h  1
 274  1.5536341e+02 1.56e-07 1.71e-01  -4.0 3.88e-03    -  1.00e+00 1.00e+00h  1
 275  1.5531537e+02 3.33e-07 5.45e-01  -4.1 6.69e-03    -  1.00e+00 5.00e-01f  2
 276  1.5526741e+02 2.68e-07 9.50e-02  -4.1 1.16e-03    -  1.00e+00 1.00e+00h  1
 277  1.5535728e+02 1.94e-07 6.53e-02  -4.0 2.13e-03    -  1.00e+00 1.00e+00f  1
 278  1.5535968e+02 2.62e-07 9.61e-02  -4.0 3.77e-03    -  1.00e+00 1.00e+00h  1
 279  1.5536163e+02 3.61e-08 4.79e-01  -4.0 1.27e-02    -  1.00e+00 1.00e+00H  1
iter    objective    inf_pr   inf_du lg(mu)  ||d||  lg(rg) alpha_du alpha_pr  ls
 280  1.5536005e+02 7.17e-08 2.94e+00  -4.0 2.84e-02    -  1.00e+00 1.25e-01f  4
 281  1.5527338e+02 1.68e-06 4.12e-01  -4.1 5.08e-03    -  1.00e+00 1.00e+00f  1
 282  1.5526345e+02 1.17e-06 1.83e-01  -4.1 4.15e-03    -  1.00e+00 1.00e+00f  1
 283  1.5535637e+02 1.45e-06 2.54e-01  -4.0 4.24e-03    -  1.00e+00 1.00e+00f  1
 284  1.5526267e+02 3.83e-07 1.42e-01  -4.1 2.26e-03    -  1.00e+00 1.00e+00f  1
 285  1.5534844e+02 1.09e-07 1.09e-01  -4.0 1.91e-03    -  1.00e+00 1.00e+00f  1
 286  1.5535118e+02 4.51e-08 9.69e-02  -4.0 8.54e-04    -  1.00e+00 1.00e+00h  1
 287  1.5535089e+02 1.31e-08 5.97e-03  -4.0 4.56e-04    -  1.00e+00 1.00e+00h  1
 288  1.5535181e+02 3.64e-09 5.55e-03  -4.0 3.02e-04    -  1.00e+00 1.00e+00h  1
 289  1.5535351e+02 1.69e-07 7.08e-02  -4.0 2.21e-03    -  1.00e+00 1.00e+00h  1
iter    objective    inf_pr   inf_du lg(mu)  ||d||  lg(rg) alpha_du alpha_pr  ls
 290  1.5526302e+02 1.33e-06 4.71e-01  -4.1 9.30e-03    -  1.00e+00 1.00e+00f  1
 291  1.5527278e+02 4.21e-09 1.36e-01  -4.1 7.58e-03    -  1.00e+00 1.00e+00H  1
 292  1.5535210e+02 5.86e-06 2.00e-01  -4.0 1.29e-02    -  1.00e+00 1.00e+00f  1
 293  1.5532039e+02 3.85e-06 1.52e+00  -4.1 6.02e-03    -  1.00e+00 5.00e-01h  2
 294  1.5525826e+02 1.95e-06 4.44e-02  -4.1 3.75e-03    -  1.00e+00 1.00e+00f  1
 295  1.5535076e+02 2.61e-07 1.07e-01  -4.0 1.78e-03    -  1.00e+00 1.00e+00h  1
 296  1.5525489e+02 3.83e-07 8.07e-02  -4.1 3.28e-03    -  1.00e+00 1.00e+00f  1
 297  1.5530662e+02 4.69e-07 6.46e-01  -4.0 4.30e-03    -  1.00e+00 5.00e-01f  2
 298  1.5523365e+02 3.73e-07 4.04e-02  -4.1 2.42e-03    -  1.00e+00 1.00e+00f  1
 299  1.5535029e+02 2.38e-07 1.02e-01  -4.0 2.97e-03    -  1.00e+00 1.00e+00f  1
iter    objective    inf_pr   inf_du lg(mu)  ||d||  lg(rg) alpha_du alpha_pr  ls
 300  1.5525399e+02 1.20e-07 9.59e-02  -4.1 2.79e-03    -  1.00e+00 1.00e+00f  1
 301  1.5535204e+02 2.21e-07 1.51e-01  -4.0 1.88e-03    -  1.00e+00 1.00e+00f  1
 302  1.5525081e+02 4.71e-07 5.31e-02  -4.1 2.51e-03    -  1.00e+00 1.00e+00f  1
 303  1.5525678e+02 4.40e-07 2.34e-01  -4.1 1.39e-03    -  1.00e+00 1.00e+00h  1
 304  1.5525076e+02 2.52e-07 1.36e-02  -4.1 1.41e-03    -  1.00e+00 1.00e+00h  1
 305  1.5534734e+02 5.37e-08 2.66e-02  -4.0 2.27e-03    -  1.00e+00 1.00e+00f  1
 306  1.5525584e+02 1.05e-06 2.84e-01  -4.1 6.56e-03    -  1.00e+00 1.00e+00f  1
 307  1.5524799e+02 2.74e-07 1.78e-01  -4.1 2.07e-03    -  1.00e+00 1.00e+00h  1
 308  1.5534623e+02 1.17e-07 8.71e-02  -4.0 3.74e-03    -  1.00e+00 1.00e+00f  1
 309  1.5525259e+02 5.50e-07 2.60e-01  -4.1 5.37e-03    -  1.00e+00 1.00e+00f  1
iter    objective    inf_pr   inf_du lg(mu)  ||d||  lg(rg) alpha_du alpha_pr  ls
 310  1.5524652e+02 1.50e-07 1.47e-01  -4.1 1.47e-03    -  1.00e+00 1.00e+00h  1
 311  1.5534565e+02 1.50e-07 3.67e-02  -4.0 3.46e-03    -  1.00e+00 1.00e+00f  1
 312  1.5529988e+02 3.44e-07 3.53e-01  -4.1 8.33e-03    -  1.00e+00 5.00e-01f  2
 313  1.5524671e+02 2.42e-07 8.28e-02  -4.1 1.87e-03    -  1.00e+00 1.00e+00h  1
 314  1.5524856e+02 5.87e-08 7.13e-02  -4.1 6.58e-04    -  1.00e+00 1.00e+00h  1
 315  1.5534602e+02 9.32e-08 4.07e-02  -4.0 3.04e-03    -  1.00e+00 1.00e+00f  1
 316  1.5525586e+02 1.40e-06 2.29e-01  -4.1 7.18e-03    -  1.00e+00 1.00e+00f  1
 317  1.5524689e+02 5.05e-07 1.12e-01  -4.1 2.05e-03    -  1.00e+00 1.00e+00h  1
 318  1.5524730e+02 1.15e-08 2.08e-02  -4.1 6.37e-04    -  1.00e+00 1.00e+00h  1
 319  1.5534524e+02 1.25e-07 3.50e-02  -4.0 3.16e-03    -  1.00e+00 1.00e+00f  1
iter    objective    inf_pr   inf_du lg(mu)  ||d||  lg(rg) alpha_du alpha_pr  ls
 320  1.5525297e+02 1.32e-06 2.94e-01  -4.1 8.63e-03    -  1.00e+00 1.00e+00f  1
 321  1.5524711e+02 3.89e-07 3.50e-01  -4.1 2.39e-03    -  1.00e+00 1.00e+00h  1
 322  1.5524736e+02 2.17e-07 9.53e-02  -4.1 2.07e-03    -  1.00e+00 1.00e+00h  1
 323  1.5524671e+02 4.71e-08 4.25e-02  -4.1 8.18e-04    -  1.00e+00 1.00e+00h  1
 324  1.5534525e+02 9.61e-08 4.63e-02  -4.0 3.11e-03    -  1.00e+00 1.00e+00f  1
 325  1.5525479e+02 1.61e-06 2.51e-01  -4.1 8.70e-03    -  1.00e+00 1.00e+00f  1
 326  1.5524547e+02 6.38e-07 9.85e-02  -4.1 2.77e-03    -  1.00e+00 1.00e+00h  1
 327  1.5524671e+02 6.12e-08 6.13e-02  -4.1 6.45e-04    -  1.00e+00 1.00e+00h  1
 328  1.5524615e+02 2.22e-08 7.11e-03  -4.1 3.30e-04    -  1.00e+00 1.00e+00h  1
 329  1.5534458e+02 1.01e-07 3.35e-02  -4.0 3.28e-03    -  1.00e+00 1.00e+00f  1
iter    objective    inf_pr   inf_du lg(mu)  ||d||  lg(rg) alpha_du alpha_pr  ls
 330  1.5525168e+02 5.30e-07 1.80e-01  -4.1 6.58e-03    -  1.00e+00 1.00e+00f  1
 331  1.5524585e+02 2.21e-07 1.18e-01  -4.1 1.78e-03    -  1.00e+00 1.00e+00h  1
 332  1.5534509e+02 2.85e-07 1.15e-01  -4.0 3.92e-03    -  1.00e+00 1.00e+00f  1
 333  1.5524669e+02 2.64e-07 2.06e-01  -4.1 4.60e-03    -  1.00e+00 1.00e+00f  1
 334  1.5524586e+02 1.36e-07 1.31e-01  -4.1 1.54e-03    -  1.00e+00 1.00e+00h  1
 335  1.5534507e+02 2.35e-07 5.26e-02  -4.0 4.40e-03    -  1.00e+00 1.00e+00f  1
 336  1.5529806e+02 2.43e-07 3.81e-01  -4.1 2.77e-03    -  1.00e+00 5.00e-01f  2
 337  1.5524603e+02 1.70e-07 4.69e-02  -4.1 2.10e-03    -  1.00e+00 1.00e+00h  1
 338  1.5524520e+02 6.00e-09 1.26e-02  -4.1 2.40e-04    -  1.00e+00 1.00e+00h  1
 339  1.5534208e+02 1.22e-07 3.79e-02  -4.0 3.47e-03    -  1.00e+00 1.00e+00f  1
iter    objective    inf_pr   inf_du lg(mu)  ||d||  lg(rg) alpha_du alpha_pr  ls
 340  1.5524880e+02 3.70e-07 1.60e-01  -4.1 4.27e-03    -  1.00e+00 1.00e+00f  1
 341  1.5524470e+02 1.45e-07 4.14e-02  -4.1 8.65e-04    -  1.00e+00 1.00e+00h  1
 342  1.5534357e+02 1.59e-07 2.24e-02  -4.0 3.69e-03    -  1.00e+00 1.00e+00f  1
 343  1.5529755e+02 2.77e-07 2.09e-01  -4.1 5.95e-03    -  1.00e+00 5.00e-01f  2
 344  1.5524452e+02 2.05e-07 3.83e-02  -4.1 1.15e-03    -  1.00e+00 1.00e+00h  1
 345  1.5534473e+02 1.52e-07 6.14e-02  -4.0 3.91e-03    -  1.00e+00 1.00e+00f  1
 346  1.5524652e+02 1.87e-07 1.16e-01  -4.1 4.87e-03    -  1.00e+00 1.00e+00f  1
 347  1.5524709e+02 1.19e-07 2.08e-01  -4.1 1.52e-03    -  1.00e+00 1.00e+00h  1
 348  1.5524463e+02 9.88e-08 5.43e-02  -4.1 1.79e-03    -  1.00e+00 1.00e+00h  1
 349  1.5534501e+02 2.23e-07 6.68e-02  -4.0 3.83e-03    -  1.00e+00 1.00e+00f  1
iter    objective    inf_pr   inf_du lg(mu)  ||d||  lg(rg) alpha_du alpha_pr  ls
 350  1.5524681e+02 3.87e-07 1.53e-01  -4.1 4.16e-03    -  1.00e+00 1.00e+00f  1
 351  1.5524441e+02 8.05e-08 6.04e-02  -4.1 1.05e-03    -  1.00e+00 1.00e+00h  1
 352  1.5534417e+02 2.23e-07 4.05e-02  -4.0 3.99e-03    -  1.00e+00 1.00e+00f  1
 353  1.5524972e+02 4.90e-07 2.69e-01  -4.1 4.21e-03    -  1.00e+00 1.00e+00f  1
 354  1.5524388e+02 1.85e-07 4.70e-02  -4.1 1.75e-03    -  1.00e+00 1.00e+00h  1
 355  1.5534409e+02 1.38e-07 4.23e-02  -4.0 3.96e-03    -  1.00e+00 1.00e+00f  1
 356  1.5529746e+02 1.80e-07 2.32e-01  -4.1 4.27e-03    -  1.00e+00 5.00e-01f  2
 357  1.5524435e+02 1.10e-07 2.23e-02  -4.1 1.75e-03    -  1.00e+00 1.00e+00h  1
 358  1.5524455e+02 2.25e-09 5.28e-03  -4.1 1.86e-04    -  1.00e+00 1.00e+00h  1
 359  1.5534423e+02 1.28e-07 2.34e-02  -4.0 3.89e-03    -  1.00e+00 1.00e+00f  1
iter    objective    inf_pr   inf_du lg(mu)  ||d||  lg(rg) alpha_du alpha_pr  ls
 360  1.5525174e+02 4.81e-07 1.68e-01  -4.1 5.48e-03    -  1.00e+00 1.00e+00f  1
 361  1.5524429e+02 2.70e-07 3.71e-02  -4.1 1.88e-03    -  1.00e+00 1.00e+00h  1
 362  1.5524431e+02 7.32e-09 7.40e-03  -4.1 3.28e-04    -  1.00e+00 1.00e+00h  1
 363  1.5534452e+02 1.53e-07 1.76e-02  -4.0 4.03e-03    -  1.00e+00 1.00e+00f  1
 364  1.5529723e+02 1.67e-07 1.67e-01  -4.1 5.98e-03    -  1.00e+00 5.00e-01f  2
 365  1.5524386e+02 8.07e-08 2.96e-02  -4.1 1.46e-03    -  1.00e+00 1.00e+00h  1
 366  1.5534507e+02 2.74e-07 6.80e-02  -4.0 4.15e-03    -  1.00e+00 1.00e+00f  1
 367  1.5525387e+02 7.25e-07 2.99e-01  -4.1 4.62e-03    -  1.00e+00 1.00e+00f  1
 368  1.5524384e+02 5.94e-07 1.72e-02  -4.1 2.63e-03    -  1.00e+00 1.00e+00f  1
 369  1.5534468e+02 2.00e-07 1.73e-02  -4.0 4.17e-03    -  1.00e+00 1.00e+00f  1
iter    objective    inf_pr   inf_du lg(mu)  ||d||  lg(rg) alpha_du alpha_pr  ls
 370  1.5532289e+02 2.20e-07 2.55e-01  -4.1 6.56e-03    -  1.00e+00 2.50e-01f  3
 371  1.5524397e+02 3.43e-07 1.94e-02  -4.1 2.64e-03    -  1.00e+00 1.00e+00f  1
 372  1.5524456e+02 1.05e-08 1.00e-02  -4.1 3.18e-04    -  1.00e+00 1.00e+00h  1
 373  1.5524398e+02 5.14e-09 8.07e-04  -4.1 2.24e-04    -  1.00e+00 1.00e+00h  1

Number of Iterations....: 373

                                   (scaled)                 (unscaled)
Objective...............:   5.8969794748996073e+01    1.5524398494590955e+02
Dual infeasibility......:   8.0704750079843568e-04    2.1246346642018665e-03
Constraint violation....:   5.1403577985961388e-09    5.1403577985961388e-09
Variable bound violation:   0.0000000000000000e+00    0.0000000000000000e+00
Complementarity.........:   8.0024918493874482e-05    2.1067374059619207e-04
Overall NLP error.......:   8.0704750079843568e-04    2.1246346642018665e-03


Number of objective function evaluations             = 678
Number of objective gradient evaluations             = 374
Number of equality constraint evaluations            = 678
Number of inequality constraint evaluations          = 678
Number of equality constraint Jacobian evaluations   = 374
Number of inequality constraint Jacobian evaluations = 374
Number of Lagrangian Hessian evaluations             = 0
Total seconds in IPOPT                               = 32.760

EXIT: Optimal Solution Found.
